--- Job trnsport.gms Start 01/18/23 20:52:10 38.2.1 96226ea8 WEX-WEI x86 64bit/MS Windows
--- Applying:
    C:\GAMS\38\gmsprmNT.txt
--- GAMS Parameters defined
    Input "G:\distance between hostpital and people group in damascus\trnsport.gms"
    PageSize 0
    ScrDir "G:\distance between hostpital and people group in damascus\225a\"
    SysDir C:\GAMS\38\
    LogOption 3
    ErrMsg 1
    ErrorLog 99
    IDE 1
    LstTitleLeftAligned 1
Licensee: GAMS Demo license for omar albahri             G220327|0002CO-GEN
          Istanbul, Turkey                                         DL063735
          C:\Users\omar\Documents\GAMS\gamslice.txt
          omarbahriit@gmail.com, omar albahri                              
          Demo license for demonstration and instructional purposes only
Processor information: 1 socket(s), 2 core(s), and 4 thread(s) available
GAMS 38.2.1   Copyright (C) 1987-2022 GAMS Development. All rights reserved
--- Starting compilation
--- trnsport.gms(117) 3 Mb
--- Starting execution: elapsed 0:00:00.000
--- trnsport.gms(94) 4 Mb
--- Generating LP model transport
--- trnsport.gms(115) 4 Mb
---   64 rows  531 columns  1,591 non-zeroes
--- Executing CPLEX (Solvelink=2): elapsed 0:00:00.015

IBM ILOG CPLEX   38.2.1 96226ea8 Feb 19, 2022          WEI x86 64bit/MS Window

--- *** This solver runs with a demo license. No commercial use.
--- GMO setup time: 0.00s
--- GMO memory 0.57 Mb (peak 0.57 Mb)
--- Dictionary memory 0.00 Mb
--- Cplex 20.1.0.1 link memory 0.01 Mb (peak 0.04 Mb)
--- Starting Cplex

Version identifier: 20.1.0.1 | 2021-04-07 | 3a818710c
CPXPARAM_Advance                                 0
CPXPARAM_Threads                                 1
CPXPARAM_MIP_Display                             4
CPXPARAM_MIP_Pool_Capacity                       0
CPXPARAM_MIP_Tolerances_AbsMIPGap                0
Implied bounds make row 'demand(1)' infeasible.
Presolve time = 0.00 sec. (0.10 ticks)

--- LP status (3): infeasible.
--- Cplex Time: 0.00sec (det. 0.10 ticks)

--- Rerunning with presolve turned off and solving with LPMETHOD=1.

Version identifier: 20.1.0.1 | 2021-04-07 | 3a818710c
CPXPARAM_Advance                                 2
CPXPARAM_Preprocessing_Presolve                  0
CPXPARAM_LPMethod                                1
CPXPARAM_Threads                                 1
CPXPARAM_MIP_Display                             4
CPXPARAM_MIP_Pool_Capacity                       0
CPXPARAM_MIP_Tolerances_AbsMIPGap                0

Iteration log . . .
Iteration:     1    Infeasibility =       1848420.000000

--- LP status (3): infeasible.
--- Cplex Time: 0.00sec (det. 0.06 ticks)


Model has been proven infeasible

--- Reading solution for model transport
--- Executing after solve: elapsed 0:00:00.154
--- trnsport.gms(117) 4 Mb
*** Status: Normal completion
--- Job trnsport.gms Stop 01/18/23 20:52:10 elapsed 0:00:00.154
